elements = 4;
candidates = 16;
requirements = [375, 91, 4, 2];
candidate_sets = [| 16, 0, 0, 2
	| 12, 0, 4, 0
	| 0, 13, 2, 0
	| 16, 0, 2, 0
	| 0, 17, 0, 0
	| 0, 13, 0, 2
	| 0, 9, 4, 0
	| 15, 6, 0, 0
	| 16, 5, 0, 0
	| 5, 11, 0, 0
	| 8, 10, 0, 0
	| 25, 0, 0, 0
	| 20, 4, 0, 0
	| 12, 8, 0, 0
	| 3, 6, 2, 2
	| 0, 5, 4, 2
	|];
candidate_weights = [13092,
	13094,
	13078,
	13093,
	13078,
	13078,
	13082,
	13088,
	13088,
	13080,
	13082,
	13093,
	13092,
	13086,
	13087,
	13088];
